59
1 0 13
2 0 22
2 1 29
3 0 17
3 1 20
3 2 13
4 0 11
4 1 29
4 2 11
4 3 25
5 0 13
5 1 12
5 2 24
5 3 2
5 4 18
6 0 28
6 1 7
6 2 25
6 3 21
6 4 23
6 5 21
7 0 4
7 1 25
7 2 21
7 3 5
7 4 18
7 5 28
7 6 11
8 0 1
8 1 21
8 2 13
8 3 5
8 4 3
8 5 22
8 6 12
8 7 20
9 0 13
9 1 10
9 2 1
9 3 19
9 4 2
9 5 17
9 6 14
9 7 26
9 8 13
10 0 1
10 1 11
10 2 13
10 3 17
10 4 25
10 5 16
10 6 22
10 7 4
10 8 4
10 9 17
11 0 9
11 1 9
11 2 28
11 3 18
11 4 8
11 5 28
11 6 26
11 7 2
11 8 3
11 9 14
11 10 1
12 0 19
12 1 5
12 2 9
12 3 11
12 4 16
12 5 17
12 6 1
12 7 21
12 8 18
12 9 4
12 10 19
12 11 27
13 0 3
13 1 29
13 2 8
13 3 17
13 4 11
13 5 3
13 6 11
13 7 27
13 8 8
13 9 4
13 10 4
13 11 4
13 12 9
14 0 27
14 1 11
14 2 2
14 3 1
14 4 27
14 5 4
14 6 24
14 7 21
14 8 8
14 9 19
14 10 4
14 11 27
14 12 23
14 13 28
15 0 8
15 1 25
15 2 6
15 3 24
15 4 2
15 5 1
15 6 9
15 7 21
15 8 22
15 9 24
15 10 14
15 11 10
15 12 18
15 13 5
15 14 16
16 0 20
16 1 24
16 2 8
16 3 22
16 4 24
16 5 11
16 6 22
16 7 2
16 8 22
16 9 1
16 10 19
16 11 21
16 12 28
16 13 7
16 14 1
16 15 9
17 0 18
17 1 4
17 2 13
17 3 20
17 4 21
17 5 12
17 6 4
17 7 23
17 8 11
17 9 3
17 10 2
17 11 13
17 12 26
17 13 15
17 14 2
17 15 13
17 16 27
18 0 17
18 1 11
18 2 17
18 3 6
18 4 21
18 5 25
18 6 6
18 7 29
18 8 18
18 9 8
18 10 26
18 11 12
18 12 24
18 13 19
18 14 7
18 15 18
18 16 5
18 17 18
19 0 9
19 1 8
19 2 26
19 3 23
19 4 23
19 5 13
19 6 9
19 7 10
19 8 28
19 9 16
19 10 14
19 11 25
19 12 18
19 13 18
19 14 7
19 15 27
19 16 22
19 17 15
19 18 5
20 0 23
20 1 21
20 2 5
20 3 21
20 4 1
20 5 3
20 6 22
20 7 17
20 8 2
20 9 7
20 10 8
20 11 19
20 12 12
20 13 29
20 14 15
20 15 23
20 16 21
20 17 2
20 18 25
20 19 18
21 0 28
21 1 16
21 2 7
21 3 7
21 4 12
21 5 25
21 6 1
21 7 1
21 8 13
21 9 17
21 10 20
21 11 5
21 12 20
21 13 1
21 14 4
21 15 5
21 16 24
21 17 25
21 18 3
21 19 7
21 20 28
22 0 22
22 1 9
22 2 12
22 3 13
22 4 7
22 5 6
22 6 23
22 7 19
22 8 26
22 9 23
22 10 25
22 11 1
22 12 16
22 13 5
22 14 17
22 15 12
22 16 14
22 17 22
22 18 29
22 19 10
22 20 16
22 21 8
23 0 24
23 1 3
23 2 20
23 3 28
23 4 13
23 5 18
23 6 5
23 7 19
23 8 21
23 9 3
23 10 5
23 11 20
23 12 7
23 13 20
23 14 9
23 15 19
23 16 14
23 17 5
23 18 13
23 19 20
23 20 28
23 21 5
23 22 15
24 0 15
24 1 20
24 2 28
24 3 13
24 4 17
24 5 7
24 6 24
24 7 18
24 8 10
24 9 7
24 10 24
24 11 20
24 12 24
24 13 9
24 14 10
24 15 28
24 16 15
24 17 17
24 18 5
24 19 8
24 20 9
24 21 3
24 22 9
24 23 18
25 0 17
25 1 15
25 2 14
25 3 1
25 4 26
25 5 28
25 6 9
25 7 12
25 8 7
25 9 11
25 10 17
25 11 17
25 12 2
25 13 3
25 14 18
25 15 13
25 16 4
25 17 20
25 18 19
25 19 28
25 20 20
25 21 25
25 22 20
25 23 2
25 24 14
26 0 1
26 1 19
26 2 13
26 3 27
26 4 12
26 5 8
26 6 1
26 7 21
26 8 27
26 9 4
26 10 10
26 11 14
26 12 16
26 13 16
26 14 25
26 15 26
26 16 15
26 17 22
26 18 4
26 19 15
26 20 19
26 21 23
26 22 23
26 23 26
26 24 29
26 25 5
27 0 12
27 1 4
27 2 24
27 3 24
27 4 22
27 5 24
27 6 14
27 7 12
27 8 28
27 9 25
27 10 10
27 11 10
27 12 29
27 13 25
27 14 13
27 15 27
27 16 24
27 17 29
27 18 6
27 19 25
27 20 17
27 21 12
27 22 2
27 23 28
27 24 23
27 25 18
27 26 23
28 0 12
28 1 21
28 2 23
28 3 23
28 4 14
28 5 9
28 6 6
28 7 28
28 8 7
28 9 27
28 10 1
28 11 20
28 12 16
28 13 7
28 14 19
28 15 3
28 16 22
28 17 27
28 18 10
28 19 18
28 20 16
28 21 27
28 22 9
28 23 13
28 24 26
28 25 14
28 26 23
28 27 17
29 0 7
29 1 28
29 2 11
29 3 17
29 4 16
29 5 24
29 6 12
29 7 24
29 8 2
29 9 16
29 10 1
29 11 7
29 12 13
29 13 11
29 14 17
29 15 1
29 16 10
29 17 5
29 18 2
29 19 6
29 20 29
29 21 15
29 22 2
29 23 10
29 24 13
29 25 10
29 26 10
29 27 6
29 28 22
30 0 1
30 1 29
30 2 11
30 3 3
30 4 10
30 5 22
30 6 15
30 7 25
30 8 20
30 9 23
30 10 3
30 11 16
30 12 26
30 13 22
30 14 5
30 15 24
30 16 2
30 17 25
30 18 24
30 19 21
30 20 10
30 21 23
30 22 21
30 23 17
30 24 27
30 25 4
30 26 29
30 27 17
30 28 8
30 29 26
31 0 5
31 1 23
31 2 17
31 3 20
31 4 25
31 5 9
31 6 23
31 7 14
31 8 26
31 9 12
31 10 27
31 11 4
31 12 11
31 13 13
31 14 12
31 15 8
31 16 29
31 17 12
31 18 16
31 19 22
31 20 19
31 21 11
31 22 12
31 23 3
31 24 19
31 25 26
31 26 5
31 27 20
31 28 19
31 29 7
31 30 25
32 0 10
32 1 24
32 2 12
32 3 17
32 4 29
32 5 23
32 6 15
32 7 29
32 8 27
32 9 28
32 10 16
32 11 20
32 12 14
32 13 7
32 14 29
32 15 16
32 16 27
32 17 4
32 18 18
32 19 28
32 20 16
32 21 14
32 22 8
32 23 8
32 24 24
32 25 4
32 26 26
32 27 8
32 28 21
32 29 17
32 30 23
32 31 6
33 0 16
33 1 28
33 2 23
33 3 24
33 4 8
33 5 16
33 6 8
33 7 13
33 8 23
33 9 8
33 10 17
33 11 22
33 12 19
33 13 17
33 14 26
33 15 16
33 16 12
33 17 9
33 18 3
33 19 19
33 20 20
33 21 5
33 22 18
33 23 13
33 24 29
33 25 21
33 26 27
33 27 20
33 28 22
33 29 8
33 30 12
33 31 28
33 32 13
34 0 25
34 1 20
34 2 26
34 3 28
34 4 13
34 5 17
34 6 27
34 7 27
34 8 29
34 9 18
34 10 29
34 11 26
34 12 20
34 13 29
34 14 18
34 15 16
34 16 27
34 17 13
34 18 5
34 19 14
34 20 17
34 21 14
34 22 6
34 23 21
34 24 21
34 25 16
34 26 12
34 27 22
34 28 28
34 29 28
34 30 11
34 31 3
34 32 17
34 33 6
35 0 7
35 1 9
35 2 28
35 3 25
35 4 19
35 5 1
35 6 3
35 7 8
35 8 15
35 9 22
35 10 20
35 11 10
35 12 12
35 13 26
35 14 8
35 15 29
35 16 20
35 17 2
35 18 26
35 19 22
35 20 3
35 21 24
35 22 11
35 23 7
35 24 14
35 25 24
35 26 19
35 27 21
35 28 19
35 29 5
35 30 9
35 31 19
35 32 17
35 33 5
35 34 3
36 0 17
36 1 21
36 2 18
36 3 21
36 4 17
36 5 28
36 6 24
36 7 20
36 8 21
36 9 1
36 10 24
36 11 27
36 12 20
36 13 10
36 14 29
36 15 27
36 16 24
36 17 1
36 18 24
36 19 8
36 20 5
36 21 2
36 22 28
36 23 20
36 24 6
36 25 8
36 26 29
36 27 14
36 28 7
36 29 4
36 30 22
36 31 16
36 32 6
36 33 5
36 34 17
36 35 13
37 0 20
37 1 25
37 2 15
37 3 5
37 4 14
37 5 17
37 6 29
37 7 26
37 8 20
37 9 9
37 10 3
37 11 13
37 12 8
37 13 16
37 14 16
37 15 16
37 16 4
37 17 24
37 18 27
37 19 23
37 20 25
37 21 5
37 22 4
37 23 7
37 24 26
37 25 1
37 26 13
37 27 5
37 28 24
37 29 13
37 30 4
37 31 15
37 32 17
37 33 25
37 34 26
37 35 7
37 36 11
38 0 7
38 1 9
38 2 27
38 3 10
38 4 10
38 5 8
38 6 10
38 7 26
38 8 8
38 9 29
38 10 3
38 11 3
38 12 6
38 13 29
38 14 12
38 15 27
38 16 4
38 17 9
38 18 18
38 19 29
38 20 10
38 21 19
38 22 29
38 23 27
38 24 18
38 25 16
38 26 4
38 27 29
38 28 28
38 29 10
38 30 24
38 31 11
38 32 21
38 33 21
38 34 26
38 35 24
38 36 23
38 37 7
39 0 28
39 1 6
39 2 1
39 3 3
39 4 3
39 5 6
39 6 19
39 7 20
39 8 4
39 9 6
39 10 1
39 11 1
39 12 24
39 13 7
39 14 18
39 15 11
39 16 21
39 17 12
39 18 18
39 19 25
39 20 26
39 21 4
39 22 29
39 23 14
39 24 4
39 25 9
39 26 10
39 27 25
39 28 28
39 29 1
39 30 2
39 31 11
39 32 12
39 33 15
39 34 6
39 35 15
39 36 28
39 37 12
39 38 1
40 0 17
40 1 23
40 2 25
40 3 3
40 4 17
40 5 16
40 6 11
40 7 28
40 8 7
40 9 29
40 10 1
40 11 17
40 12 22
40 13 22
40 14 11
40 15 17
40 16 24
40 17 21
40 18 22
40 19 15
40 20 29
40 21 27
40 22 7
40 23 28
40 24 13
40 25 25
40 26 11
40 27 29
40 28 11
40 29 27
40 30 9
40 31 21
40 32 4
40 33 23
40 34 2
40 35 5
40 36 18
40 37 8
40 38 28
40 39 14
41 0 3
41 1 16
41 2 13
41 3 3
41 4 8
41 5 18
41 6 7
41 7 20
41 8 20
41 9 28
41 10 24
41 11 26
41 12 20
41 13 14
41 14 29
41 15 19
41 16 10
41 17 22
41 18 19
41 19 22
41 20 3
41 21 3
41 22 27
41 23 1
41 24 13
41 25 14
41 26 29
41 27 1
41 28 1
41 29 13
41 30 5
41 31 14
41 32 26
41 33 17
41 34 26
41 35 16
41 36 20
41 37 14
41 38 29
41 39 24
41 40 25
42 0 6
42 1 24
42 2 22
42 3 17
42 4 14
42 5 24
42 6 10
42 7 29
42 8 3
42 9 4
42 10 5
42 11 6
42 12 26
42 13 14
42 14 13
42 15 27
42 16 9
42 17 12
42 18 21
42 19 21
42 20 27
42 21 18
42 22 21
42 23 13
42 24 1
42 25 28
42 26 8
42 27 5
42 28 20
42 29 15
42 30 8
42 31 12
42 32 3
42 33 8
42 34 3
42 35 9
42 36 7
42 37 3
42 38 7
42 39 1
42 40 24
42 41 13
43 0 17
43 1 28
43 2 6
43 3 6
43 4 27
43 5 9
43 6 6
43 7 18
43 8 20
43 9 11
43 10 3
43 11 1
43 12 23
43 13 4
43 14 24
43 15 12
43 16 29
43 17 17
43 18 9
43 19 29
43 20 13
43 21 16
43 22 26
43 23 12
43 24 7
43 25 1
43 26 25
43 27 19
43 28 3
43 29 17
43 30 27
43 31 20
43 32 10
43 33 11
43 34 23
43 35 1
43 36 3
43 37 5
43 38 24
43 39 3
43 40 7
43 41 8
43 42 8
44 0 5
44 1 9
44 2 23
44 3 6
44 4 26
44 5 28
44 6 12
44 7 9
44 8 26
44 9 2
44 10 10
44 11 21
44 12 5
44 13 21
44 14 16
44 15 12
44 16 22
44 17 6
44 18 5
44 19 28
44 20 8
44 21 28
44 22 23
44 23 13
44 24 15
44 25 19
44 26 28
44 27 21
44 28 10
44 29 18
44 30 1
44 31 25
44 32 14
44 33 6
44 34 16
44 35 29
44 36 24
44 37 10
44 38 11
44 39 28
44 40 14
44 41 17
44 42 12
44 43 22
45 0 24
45 1 26
45 2 21
45 3 8
45 4 23
45 5 28
45 6 9
45 7 3
45 8 22
45 9 16
45 10 21
45 11 12
45 12 14
45 13 18
45 14 15
45 15 27
45 16 21
45 17 14
45 18 10
45 19 24
45 20 28
45 21 1
45 22 9
45 23 24
45 24 2
45 25 12
45 26 7
45 27 28
45 28 26
45 29 11
45 30 25
45 31 20
45 32 27
45 33 1
45 34 17
45 35 12
45 36 1
45 37 27
45 38 12
45 39 15
45 40 16
45 41 27
45 42 19
45 43 14
45 44 26
46 0 14
46 1 4
46 2 24
46 3 2
46 4 3
46 5 25
46 6 21
46 7 26
46 8 8
46 9 27
46 10 14
46 11 24
46 12 26
46 13 19
46 14 24
46 15 17
46 16 28
46 17 1
46 18 26
46 19 27
46 20 20
46 21 26
46 22 19
46 23 15
46 24 9
46 25 18
46 26 19
46 27 23
46 28 2
46 29 25
46 30 14
46 31 17
46 32 21
46 33 4
46 34 24
46 35 21
46 36 19
46 37 27
46 38 5
46 39 19
46 40 18
46 41 21
46 42 6
46 43 9
46 44 7
46 45 27
47 0 6
47 1 14
47 2 14
47 3 6
47 4 22
47 5 2
47 6 26
47 7 29
47 8 1
47 9 19
47 10 2
47 11 11
47 12 18
47 13 29
47 14 6
47 15 3
47 16 11
47 17 2
47 18 25
47 19 20
47 20 9
47 21 29
47 22 11
47 23 11
47 24 5
47 25 14
47 26 3
47 27 8
47 28 26
47 29 16
47 30 27
47 31 22
47 32 2
47 33 12
47 34 22
47 35 12
47 36 25
47 37 4
47 38 17
47 39 17
47 40 28
47 41 5
47 42 6
47 43 12
47 44 6
47 45 28
47 46 7
48 0 14
48 1 21
48 2 10
48 3 26
48 4 19
48 5 6
48 6 9
48 7 4
48 8 7
48 9 3
48 10 8
48 11 17
48 12 10
48 13 13
48 14 8
48 15 18
48 16 2
48 17 29
48 18 4
48 19 22
48 20 9
48 21 12
48 22 7
48 23 22
48 24 16
48 25 15
48 26 24
48 27 7
48 28 13
48 29 11
48 30 13
48 31 3
48 32 4
48 33 22
48 34 17
48 35 15
48 36 11
48 37 1
48 38 18
48 39 12
48 40 19
48 41 11
48 42 11
48 43 29
48 44 16
48 45 28
48 46 16
48 47 19
49 0 21
49 1 15
49 2 1
49 3 20
49 4 23
49 5 11
49 6 14
49 7 21
49 8 19
49 9 23
49 10 7
49 11 7
49 12 27
49 13 17
49 14 1
49 15 21
49 16 6
49 17 24
49 18 29
49 19 12
49 20 10
49 21 9
49 22 15
49 23 21
49 24 15
49 25 12
49 26 7
49 27 14
49 28 7
49 29 5
49 30 18
49 31 3
49 32 12
49 33 10
49 34 24
49 35 14
49 36 26
49 37 27
49 38 29
49 39 17
49 40 12
49 41 7
49 42 15
49 43 9
49 44 28
49 45 25
49 46 26
49 47 21
49 48 8
50 0 19
50 1 18
50 2 13
50 3 1
50 4 24
50 5 21
50 6 27
50 7 10
50 8 3
50 9 14
50 10 22
50 11 2
50 12 16
50 13 21
50 14 6
50 15 9
50 16 21
50 17 14
50 18 26
50 19 18
50 20 15
50 21 13
50 22 7
50 23 24
50 24 23
50 25 8
50 26 20
50 27 25
50 28 6
50 29 15
50 30 9
50 31 17
50 32 14
50 33 1
50 34 4
50 35 24
50 36 26
50 37 4
50 38 14
50 39 2
50 40 29
50 41 9
50 42 15
50 43 1
50 44 21
50 45 25
50 46 19
50 47 27
50 48 18
50 49 28
51 0 28
51 1 15
51 2 10
51 3 29
51 4 28
51 5 4
51 6 5
51 7 5
51 8 7
51 9 4
51 10 27
51 11 15
51 12 24
51 13 12
51 14 17
51 15 5
51 16 24
51 17 16
51 18 19
51 19 12
51 20 18
51 21 21
51 22 19
51 23 18
51 24 16
51 25 3
51 26 21
51 27 15
51 28 20
51 29 27
51 30 1
51 31 25
51 32 4
51 33 19
51 34 17
51 35 3
51 36 11
51 37 19
51 38 8
51 39 27
51 40 14
51 41 6
51 42 23
51 43 15
51 44 27
51 45 5
51 46 9
51 47 4
51 48 26
51 49 11
51 50 9
52 0 24
52 1 23
52 2 9
52 3 25
52 4 17
52 5 29
52 6 1
52 7 5
52 8 14
52 9 20
52 10 23
52 11 9
52 12 13
52 13 17
52 14 10
52 15 16
52 16 1
52 17 28
52 18 15
52 19 12
52 20 27
52 21 2
52 22 3
52 23 11
52 24 20
52 25 25
52 26 27
52 27 16
52 28 26
52 29 5
52 30 21
52 31 13
52 32 1
52 33 24
52 34 16
52 35 29
52 36 14
52 37 24
52 38 6
52 39 20
52 40 21
52 41 5
52 42 22
52 43 12
52 44 6
52 45 16
52 46 27
52 47 5
52 48 2
52 49 10
52 50 15
52 51 15
53 0 2
53 1 2
53 2 12
53 3 13
53 4 25
53 5 22
53 6 12
53 7 26
53 8 7
53 9 4
53 10 22
53 11 10
53 12 27
53 13 9
53 14 20
53 15 5
53 16 16
53 17 27
53 18 6
53 19 3
53 20 27
53 21 4
53 22 11
53 23 6
53 24 21
53 25 18
53 26 14
53 27 4
53 28 24
53 29 10
53 30 21
53 31 15
53 32 16
53 33 2
53 34 25
53 35 29
53 36 28
53 37 28
53 38 19
53 39 29
53 40 9
53 41 6
53 42 13
53 43 5
53 44 9
53 45 24
53 46 7
53 47 18
53 48 18
53 49 15
53 50 28
53 51 23
53 52 16
54 0 15
54 1 17
54 2 18
54 3 15
54 4 26
54 5 21
54 6 5
54 7 14
54 8 15
54 9 16
54 10 16
54 11 17
54 12 18
54 13 9
54 14 23
54 15 2
54 16 6
54 17 23
54 18 23
54 19 16
54 20 2
54 21 5
54 22 11
54 23 21
54 24 4
54 25 23
54 26 1
54 27 1
54 28 10
54 29 4
54 30 25
54 31 12
54 32 8
54 33 7
54 34 6
54 35 20
54 36 12
54 37 20
54 38 14
54 39 6
54 40 8
54 41 7
54 42 10
54 43 9
54 44 14
54 45 9
54 46 12
54 47 29
54 48 28
54 49 25
54 50 25
54 51 14
54 52 26
54 53 18
55 0 25
55 1 6
55 2 18
55 3 22
55 4 20
55 5 11
55 6 27
55 7 5
55 8 16
55 9 19
55 10 21
55 11 1
55 12 4
55 13 24
55 14 9
55 15 17
55 16 23
55 17 4
55 18 9
55 19 24
55 20 11
55 21 13
55 22 26
55 23 4
55 24 21
55 25 7
55 26 22
55 27 18
55 28 16
55 29 13
55 30 20
55 31 12
55 32 9
55 33 5
55 34 15
55 35 7
55 36 23
55 37 8
55 38 29
55 39 29
55 40 12
55 41 8
55 42 25
55 43 5
55 44 17
55 45 20
55 46 7
55 47 15
55 48 24
55 49 1
55 50 18
55 51 24
55 52 5
55 53 5
55 54 25
56 0 8
56 1 4
56 2 20
56 3 11
56 4 8
56 5 15
56 6 11
56 7 14
56 8 4
56 9 15
56 10 29
56 11 4
56 12 20
56 13 25
56 14 2
56 15 18
56 16 22
56 17 19
56 18 4
56 19 17
56 20 9
56 21 2
56 22 3
56 23 15
56 24 9
56 25 14
56 26 6
56 27 4
56 28 5
56 29 20
56 30 23
56 31 10
56 32 13
56 33 20
56 34 9
56 35 5
56 36 9
56 37 21
56 38 18
56 39 21
56 40 24
56 41 16
56 42 2
56 43 4
56 44 23
56 45 24
56 46 22
56 47 18
56 48 20
56 49 12
56 50 18
56 51 2
56 52 5
56 53 19
56 54 17
56 55 14
57 0 9
57 1 3
57 2 6
57 3 21
57 4 20
57 5 15
57 6 20
57 7 20
57 8 10
57 9 18
57 10 3
57 11 11
57 12 4
57 13 25
57 14 18
57 15 13
57 16 27
57 17 6
57 18 9
57 19 28
57 20 4
57 21 14
57 22 22
57 23 20
57 24 22
57 25 28
57 26 14
57 27 26
57 28 12
57 29 9
57 30 10
57 31 21
57 32 1
57 33 27
57 34 16
57 35 18
57 36 8
57 37 5
57 38 26
57 39 26
57 40 9
57 41 12
57 42 21
57 43 11
57 44 2
57 45 20
57 46 26
57 47 19
57 48 4
57 49 3
57 50 2
57 51 27
57 52 5
57 53 18
57 54 14
57 55 23
57 56 20
58 0 3
58 1 16
58 2 15
58 3 11
58 4 4
58 5 22
58 6 13
58 7 5
58 8 3
58 9 19
58 10 16
58 11 9
58 12 10
58 13 1
58 14 22
58 15 6
58 16 7
58 17 12
58 18 26
58 19 1
58 20 7
58 21 18
58 22 15
58 23 28
58 24 2
58 25 28
58 26 18
58 27 24
58 28 13
58 29 12
58 30 14
58 31 12
58 32 12
58 33 17
58 34 10
58 35 28
58 36 16
58 37 14
58 38 18
58 39 3
58 40 5
58 41 15
58 42 8
58 43 19
58 44 7
58 45 2
58 46 8
58 47 3
58 48 3
58 49 19
58 50 13
58 51 7
58 52 29
58 53 13
58 54 20
58 55 21
58 56 12
58 57 15
